language ESSENCE' 1.0
letting nrows be 7
letting ncols be 8

letting nrobots be 6
letting robot_pos be [[1, 1], 
                     [3 , 1],
                     [5 , 1],
                     [1 , 8],
                     [5 , 8],
                     [7 , 8]]

letting ntasks be 8 
letting task_obj be [1, 2, 1, 2, 1, 2, 1, 2]
letting task_dest be [[1 , 2], 
                      [1 , 4],
                      [1 , 6],
                      [1 , 8],
                      [7 , 2],
                      [7 , 4],
                      [7 , 6],
                      [7 , 8]]

letting time_limit be 12

letting map be [[ 0, 0, 0, 0, 0, 0, 0, 0],
                [ 0,-1,-1, 1, 1,-1,-1, 0],
                [ 0, 1, 0, 0, 0, 1, 0, 0],
                [ 0, 0, 0, 0, 0, 0, 0, 0],
                [ 0,-1,-1, 2, 2,-1,-1, 0],
                [ 0, 2, 0, 0, 0, 2, 0, 0],
                [ 0, 0, 0, 0, 0, 0, 0, 0]]
